150
[30,31,32,33,34,35,37,38,39,40,41,44,45,46,49,50,51,52,53,54,55,56,57,58,59,60,61,62,63,64,65,66,67,68,69,70,71,72,73,74,75,76,77,78,79,80,82,83,84,85,86,87,88,89,90,93,94,95,96,97,98,99,100,101,102,103,104,105,106,107,108,109,111,112,113,114,115,116,117,118,119,120]
[3,2,4,1,2,2,2,1,2,4,3,6,5,2,2,1,1,2,4,3,3,1,1,1,1,5,2,1,2,1,1,1,2,2,4,1,3,2,6,3,4,1,2,2,1,1,1,3,3,2,1,1,5,3,2,3,6,2,5,3,2,3,1,3,3,3,2,1,2,3,4,1,6,1,3,2,3,1,4,4,1,1]
